MLW01
Position Depot: Center
Horizon for Depot: Large
Position of customers: Mixt
Distribution of the demand: Small
Width of time windows: Wide
Distribution of the service: Large

VEHICLE 
NUMBER 	 CAPACITY 
 10 	 	 38 
 
CUSTOMER
CUST NO. 	 XCOORD.  	 YCOORD. 	 DEMAND 	 READY TIME 	 DUE DATE 	 SERVICE TIME 
 0 	 	 500 	 	 500 	 	 0 	 	 0 	 	 2762 	 	 0 
  1 	 	 402 	 	 152 	 	 10 	 	 1293 	 	 1768 	 	 124 
  2 	 	 430 	 	 731 	 	 9 	 	 41 	 	 265 	 	 138 
  3 	 	 355 	 	 893 	 	 7 	 	 1399 	 	 1774 	 	 189 
  4 	 	 418 	 	 149 	 	 6 	 	 746 	 	 1118 	 	 106 
  5 	 	 358 	 	 887 	 	 8 	 	 2229 	 	 2446 	 	 162 
  6 	 	 385 	 	 833 	 	 6 	 	 2088 	 	 2583 	 	 125 
  7 	 	 418 	 	 98 	 	 7 	 	 990 	 	 1419 	 	 115 
  8 	 	 292 	 	 311 	 	 10 	 	 1443 	 	 1879 	 	 121 
  9 	 	 376 	 	 907 	 	 7 	 	 922 	 	 1317 	 	 166 
  10 	 	 269 	 	 935 	 	 7 	 	 1375 	 	 1656 	 	 174 
  11 	 	 422 	 	 729 	 	 6 	 	 833 	 	 1138 	 	 151 
  12 	 	 495 	 	 842 	 	 8 	 	 2078 	 	 2547 	 	 120 
  13 	 	 396 	 	 723 	 	 10 	 	 2084 	 	 2526 	 	 105 
  14 	 	 403 	 	 2 	 	 9 	 	 1866 	 	 2326 	 	 192 
  15 	 	 365 	 	 731 	 	 6 	 	 2033 	 	 2286 	 	 186 
  16 	 	 403 	 	 666 	 	 6 	 	 1782 	 	 2261 	 	 183 
  17 	 	 490 	 	 843 	 	 5 	 	 890 	 	 1149 	 	 177 
  18 	 	 476 	 	 152 	 	 6 	 	 652 	 	 1068 	 	 191 
  19 	 	 368 	 	 868 	 	 10 	 	 1559 	 	 1960 	 	 116 
  20 	 	 475 	 	 163 	 	 9 	 	 641 	 	 1077 	 	 176 
  21 	 	 342 	 	 745 	 	 5 	 	 1976 	 	 2236 	 	 170 
  22 	 	 443 	 	 80 	 	 6 	 	 318 	 	 528 	 	 106 
  23 	 	 451 	 	 256 	 	 9 	 	 2212 	 	 2632 	 	 184 
  24 	 	 376 	 	 141 	 	 6 	 	 12 	 	 417 	 	 108 
  25 	 	 366 	 	 897 	 	 8 	 	 2009 	 	 2381 	 	 190 
  26 	 	 372 	 	 174 	 	 8 	 	 453 	 	 898 	 	 134 
  27 	 	 631 	 	 297 	 	 8 	 	 2246 	 	 2570 	 	 125 
  28 	 	 973 	 	 926 	 	 7 	 	 575 	 	 915 	 	 103 
  29 	 	 779 	 	 458 	 	 9 	 	 493 	 	 821 	 	 157 
  30 	 	 214 	 	 143 	 	 7 	 	 2225 	 	 2440 	 	 144 
  31 	 	 442 	 	 45 	 	 8 	 	 1726 	 	 1930 	 	 174 
  32 	 	 734 	 	 431 	 	 9 	 	 148 	 	 384 	 	 102 
  33 	 	 271 	 	 167 	 	 7 	 	 1446 	 	 1798 	 	 163 
  34 	 	 355 	 	 685 	 	 8 	 	 1768 	 	 2008 	 	 172 
  35 	 	 654 	 	 177 	 	 9 	 	 2439 	 	 2652 	 	 142 
  36 	 	 747 	 	 72 	 	 7 	 	 440 	 	 683 	 	 148 
  37 	 	 41 	 	 224 	 	 5 	 	 1870 	 	 2360 	 	 162 
  38 	 	 829 	 	 725 	 	 6 	 	 2298 	 	 2762 	 	 180 
  39 	 	 485 	 	 66 	 	 7 	 	 2408 	 	 2663 	 	 150 
  40 	 	 67 	 	 593 	 	 5 	 	 1900 	 	 2262 	 	 140 
  41 	 	 805 	 	 376 	 	 10 	 	 1960 	 	 2302 	 	 110 
  42 	 	 906 	 	 546 	 	 8 	 	 1003 	 	 1455 	 	 149 
  43 	 	 477 	 	 953 	 	 6 	 	 1218 	 	 1423 	 	 153 
  44 	 	 518 	 	 808 	 	 5 	 	 1019 	 	 1369 	 	 110 
  45 	 	 566 	 	 895 	 	 9 	 	 2301 	 	 2762 	 	 166 
  46 	 	 564 	 	 584 	 	 9 	 	 854 	 	 1147 	 	 193 
  47 	 	 878 	 	 839 	 	 5 	 	 1370 	 	 1578 	 	 163 
  48 	 	 191 	 	 497 	 	 6 	 	 1749 	 	 2042 	 	 140 
  49 	 	 909 	 	 522 	 	 10 	 	 973 	 	 1425 	 	 180 
  50 	 	 549 	 	 547 	 	 8 	 	 1751 	 	 2232 	 	 155 
 